\ Model Capital Budgeting Problem with Multi-Stage Investments and Resource Constraints
\ LP format - for model browsing. Use MPS format to capture full model detail.
Maximize
  281411.3649435181 x[0,0] + 281411.3649435181 x[0,1]
   + 281411.3649435181 x[0,2] + 88209.90501857994 x[1,0]
   + 88209.90501857994 x[1,1] + 88209.90501857994 x[1,2]
   + 62328.84693983741 x[2,0] + 62328.84693983741 x[2,1]
   + 62328.84693983741 x[2,2] + 714178.777216206 x[3,0]
   + 714178.777216206 x[3,1] + 714178.777216206 x[3,2]
   + 868030.173196708 x[4,0] + 868030.173196708 x[4,1]
   + 868030.173196708 x[4,2]
Subject To
 budget_0: x[0,0] + x[1,0] + x[2,0] + x[3,0] + x[4,0] <= 1e+06
 budget_1: x[0,1] + x[1,1] + x[2,1] + x[3,1] + x[4,1] <= 1e+06
 budget_2: x[0,2] + x[1,2] + x[2,2] + x[3,2] + x[4,2] <= 1e+06
 resource_0_0: 1e+06 x[0,0] + 1e+06 x[1,0] + 1e+06 x[2,0] + 1e+06 x[3,0]
   + 1e+06 x[4,0] <= 1e+06
 resource_0_1: 1e+06 x[0,0] + 1e+06 x[1,0] + 1e+06 x[2,0] + 1e+06 x[3,0]
   + 1e+06 x[4,0] <= 1e+06
 resource_1_0: 1e+06 x[0,1] + 1e+06 x[1,1] + 1e+06 x[2,1] + 1e+06 x[3,1]
   + 1e+06 x[4,1] <= 1e+06
 resource_1_1: 1e+06 x[0,1] + 1e+06 x[1,1] + 1e+06 x[2,1] + 1e+06 x[3,1]
   + 1e+06 x[4,1] <= 1e+06
 resource_2_0: 1e+06 x[0,2] + 1e+06 x[1,2] + 1e+06 x[2,2] + 1e+06 x[3,2]
   + 1e+06 x[4,2] <= 1e+06
 resource_2_1: 1e+06 x[0,2] + 1e+06 x[1,2] + 1e+06 x[2,2] + 1e+06 x[3,2]
   + 1e+06 x[4,2] <= 1e+06
Bounds
Binaries
 x[0,0] x[0,1] x[0,2] x[1,0] x[1,1] x[1,2] x[2,0] x[2,1] x[2,2] x[3,0]
 x[3,1] x[3,2] x[4,0] x[4,1] x[4,2]
End
